db/data/29622112222082221422242196181678631348.z3.out
sat
-------------------
240.842172493
